Cu Ce  O  C
 1.0000000000000000
    15.3045997620000005    0.0000000000000000    0.0000000000000000
    -7.6522998810000002   13.2541721886000001    0.0000000000000000
     0.0000000000000000    0.0000000000000000   17.5620002747000008
Cu Ce O C 
3 16 38 4 
Selective
Cartesian
6.54027  6.60848  3.53917    T  T  T
4.37819  2.79652  3.56292    T  T  T
3.13144  5.94290  3.49517    T  T  T
12.43491  0.55230  0.78101    F  F  F
-0.95661  3.86584  0.78101    F  F  F
2.86954  3.86584  0.78101    F  F  F
6.69569  3.86584  0.78101    F  F  F
10.52184  3.86584  0.78101    F  F  F
-2.86969  7.17939  0.78101    F  F  F
0.95646  7.17939  0.78101    F  F  F
4.78261  7.17939  0.78101    F  F  F
8.60876  7.17939  0.78101    F  F  F
-4.78276  10.49293  0.78101    F  F  F
-0.95661  10.49293  0.78101    F  F  F
2.86953  10.49293  0.78101    F  F  F
6.69568  10.49293  0.78101    F  F  F
0.95646  0.55230  0.78101    F  F  F
4.78261  0.55230  0.78101    F  F  F
8.60876  0.55230  0.78101    F  F  F
12.43506  2.76124  1.56203    F  F  F
12.43499  4.97031  0.00000    F  F  F
-0.95646  6.07478  1.56203    F  F  F
0.95654  4.97031  0.00000    F  F  F
2.86969  6.07478  1.56203    F  F  F
4.78269  4.97031  0.00000    F  F  F
6.69584  6.07478  1.56203    F  F  F
8.60884  4.97031  0.00000    F  F  F
10.52199  6.07478  1.56203    F  F  F
10.52191  8.28386  0.00000    F  F  F
-2.86954  9.38833  1.56203    F  F  F
-0.95654  8.28386  0.00000    F  F  F
0.95661  9.38833  1.56203    F  F  F
2.86961  8.28386  0.00000    F  F  F
4.78276  9.38833  1.56203    F  F  F
6.69576  8.28386  0.00000    F  F  F
8.60892  9.38833  1.56203    F  F  F
-6.69576  11.59740  0.00000    F  F  F
-4.78261  12.70187  1.56203    F  F  F
-2.86961  11.59740  0.00000    F  F  F
14.34806  1.65677  0.00000    F  F  F
-0.95646  12.70187  1.56203    F  F  F
0.95654  11.59740  0.00000    F  F  F
2.86969  12.70187  1.56203    F  F  F
4.78269  11.59740  0.00000    F  F  F
6.69584  12.70187  1.56203    F  F  F
0.95661  2.76124  1.56203    F  F  F
2.86961  1.65677  0.00000    F  F  F
4.78276  2.76124  1.56203    F  F  F
6.69576  1.65677  0.00000    F  F  F
8.60891  2.76124  1.56203    F  F  F
10.52191  1.65677  0.00000    F  F  F
4.80460  6.90501  3.05546    T  T  T
3.10918  4.00609  3.06944    T  T  T
8.41641  6.64654  5.78244    T  T  T
5.66213  1.49988  5.84281    T  T  T
1.76644  6.86016  5.94744    T  T  T
1.41942  2.16705  4.44152    T  T  T
2.54657  2.40685  4.10682    T  T  T
2.28356  6.48674  4.98307    T  T  T
5.16507  1.96317  4.90740    T  T  T
7.71381  6.64530  4.86539    T  T  T
