Ce  O Cu 
 1.0000000000000000
    15.3045997620000005    0.0000000000000000    0.0000000000000000
    -7.6522998810000002   13.2541721886000001    0.0000000000000000
     0.0000000000000000    0.0000000000000000   17.5620002747000008
 Ce  O   Cu 
  16  32   4
Selective dynamics
Cartesian
  0.9564599999999999  0.5523000000000000  0.7810100000000000   F   F   F
  4.7826100000000000  0.5523000000000000  0.7810100000000000   F   F   F
  8.6087600000000002  0.5523000000000000  0.7810100000000000   F   F   F
 12.4349100000000004  0.5523000000000000  0.7810100000000000   F   F   F
 -0.9566099999999998  3.8658399999999999  0.7810100000000000   F   F   F
  2.8695400000000002  3.8658399999999999  0.7810100000000000   F   F   F
  6.6956899999999999  3.8658399999999999  0.7810100000000000   F   F   F
 10.5218399999999992  3.8658399999999999  0.7810100000000000   F   F   F
 -2.8696899999999994  7.1793900000000006  0.7810100000000000   F   F   F
  0.9564599999999999  7.1793900000000006  0.7810100000000000   F   F   F
  4.7826099999999991  7.1793900000000006  0.7810100000000000   F   F   F
  8.6087600000000002  7.1793900000000006  0.7810100000000000   F   F   F
 -4.7827599999999997 10.4929299999999994  0.7810100000000000   F   F   F
 -0.9566100000000000 10.4929299999999994  0.7810100000000000   F   F   F
  2.8695299999999997 10.4929299999999994  0.7810100000000000   F   F   F
  6.6956799999999994 10.4929299999999994  0.7810100000000000   F   F   F
 12.4350600000000000  2.7612399999999999  1.5620299999999998   F   F   F
 -2.8696097620000001  4.9703099999999996  0.0000000000000000   F   F   F
 -0.9564599999999999  6.0747799999999996  1.5620299999999998   F   F   F
  0.9565399999999996  4.9703099999999996  0.0000000000000000   F   F   F
  2.8696899999999999  6.0747799999999996  1.5620299999999998   F   F   F
  4.7826899999999997  4.9703099999999996  0.0000000000000000   F   F   F
  6.6958400000000005  6.0747799999999996  1.5620299999999998   F   F   F
  8.6088400000000007  4.9703099999999996  0.0000000000000000   F   F   F
 10.5219900000000024  6.0747799999999996  1.5620299999999998   F   F   F
 -4.7826900000000006  8.2838600000000007  0.0000000000000000   F   F   F
 -2.8695400000000002  9.3883299999999998  1.5620299999999998   F   F   F
 -0.9565400000000001  8.2838600000000007  0.0000000000000000   F   F   F
  0.9566100000000002  9.3883299999999998  1.5620299999999998   F   F   F
  2.8696099999999993  8.2838600000000007  0.0000000000000000   F   F   F
  4.7827600000000006  9.3883299999999998  1.5620299999999998   F   F   F
  6.6957599999999999  8.2838600000000007  0.0000000000000000   F   F   F
  8.6089199999999995  9.3883299999999998  1.5620299999999998   F   F   F
 -6.6957597619999998 11.5974000000000004  0.0000000000000000   F   F   F
 -4.7826100000000000 12.7018699999999995  1.5620299999999998   F   F   F
 -2.8696100000000002 11.5974000000000004  0.0000000000000000   F   F   F
 14.3480597620000001  1.6567700000000001  0.0000000000000000   F   F   F
 -0.9564599999999998 12.7018699999999995  1.5620299999999998   F   F   F
  0.9565400000000012 11.5974000000000004  0.0000000000000000   F   F   F
  2.8696900000000003 12.7018699999999995  1.5620299999999998   F   F   F
  4.7826900000000006 11.5974000000000004  0.0000000000000000   F   F   F
  6.6958399999999987 12.7018699999999995  1.5620299999999998   F   F   F
  0.9566100000000003  2.7612399999999999  1.5620299999999998   F   F   F
  2.8696100000000002  1.6567700000000001  0.0000000000000000   F   F   F
  4.7827599999999997  2.7612399999999999  1.5620299999999998   F   F   F
  6.6957599999999999  1.6567700000000001  0.0000000000000000   F   F   F
  8.6089099999999998  2.7612399999999999  1.5620299999999998   F   F   F
 10.5219100000000001  1.6567700000000001  0.0000000000000000   F   F   F
  4.7809637192301855  4.9684990356356211  5.1742095966945909   T   T   T
  4.7828337709037045  3.5516575055361570  3.2699464552020756   T   T   T
  6.0063952047461688  5.6785682299856184  3.2756101663199346   T   T   T
  3.5580399621176109  5.6763606327033571  3.2713762291355124   T   T   T
