Cu Ce  O  C
   1.00000000000000
    15.3045997620000005    0.0000000000000000    0.0000000000000000
    -7.6522998810000002   13.2541721886000001    0.0000000000000000
     0.0000000000000000    0.0000000000000000   17.5620002747000008
   Cu   Ce   O    C
     3    16    40     1
Selective
Cartesian
	+6.3174841428   +5.8816486925   +3.5587926098  T T T
	+4.7731008672   +3.6399269815   +3.3515506402  T T T
	+3.1567175600   +5.8794236989   +3.5571400992  T T T
	+12.4349100000   +0.5523000000   +0.7810100000  F F F
	-0.9566100000   +3.8658400000   +0.7810100000  F F F
	+2.8695400000   +3.8658400000   +0.7810100000  F F F
	+6.6956900000   +3.8658400000   +0.7810100000  F F F
	+10.5218400000   +3.8658400000   +0.7810100000  F F F
	-2.8696900000   +7.1793900000   +0.7810100000  F F F
	+0.9564600000   +7.1793900000   +0.7810100000  F F F
	+4.7826100000   +7.1793900000   +0.7810100000  F F F
	+8.6087600000   +7.1793900000   +0.7810100000  F F F
	-4.7827600000   +10.4929300000   +0.7810100000  F F F
	-0.9566100000   +10.4929300000   +0.7810100000  F F F
	+2.8695300000   +10.4929300000   +0.7810100000  F F F
	+6.6956800000   +10.4929300000   +0.7810100000  F F F
	+0.9564600000   +0.5523000000   +0.7810100000  F F F
	+4.7826100000   +0.5523000000   +0.7810100000  F F F
	+8.6087600000   +0.5523000000   +0.7810100000  F F F
	+12.4350600000   +2.7612400000   +1.5620300000  F F F
	-2.8696097620   +4.9703100000   +0.0000000000  F F F
	-0.9564600000   +6.0747800000   +1.5620300000  F F F
	+0.9565400000   +4.9703100000   +0.0000000000  F F F
	+2.8696900000   +6.0747800000   +1.5620300000  F F F
	+4.7826900000   +4.9703100000   +0.0000000000  F F F
	+6.6958400000   +6.0747800000   +1.5620300000  F F F
	+8.6088400000   +4.9703100000   +0.0000000000  F F F
	+10.5219900000   +6.0747800000   +1.5620300000  F F F
	+10.5219100000   +8.2838600000   +0.0000000000  F F F
	-2.8695400000   +9.3883300000   +1.5620300000  F F F
	-0.9565400000   +8.2838600000   +0.0000000000  F F F
	+0.9566100000   +9.3883300000   +1.5620300000  F F F
	+2.8696100000   +8.2838600000   +0.0000000000  F F F
	+4.7827600000   +9.3883300000   +1.5620300000  F F F
	+6.6957600000   +8.2838600000   +0.0000000000  F F F
	+8.6089200000   +9.3883300000   +1.5620300000  F F F
	-6.6957600000   +11.5974000000   +0.0000000000  F F F
	-4.7826100000   +12.7018700000   +1.5620300000  F F F
	-2.8696100000   +11.5974000000   +0.0000000000  F F F
	+14.3480600000   +1.6567700000   +0.0000000000  F F F
	-0.9564600000   +12.7018700000   +1.5620300000  F F F
	+0.9565400000   +11.5974000000   +0.0000000000  F F F
	+2.8696900000   +12.7018700000   +1.5620300000  F F F
	+4.7826900000   +11.5974000000   +0.0000000000  F F F
	+6.6958400000   +12.7018700000   +1.5620300000  F F F
	+0.9566100000   +2.7612400000   +1.5620300000  F F F
	+2.8696100000   +1.6567700000   +0.0000000000  F F F
	+4.7827600000   +2.7612400000   +1.5620300000  F F F
	+6.6957600000   +1.6567700000   +0.0000000000  F F F
	+8.6089100000   +2.7612400000   +1.5620300000  F F F
	+10.5219100000   +1.6567700000   +0.0000000000  F F F
	+6.5342763109   +4.0222894178   +3.2804493722  T T T
	+3.0125466920   +3.9704531447   +3.2210670876  T T T
	+8.7192888506   +7.2280289547   +3.5143198391  T T T
	+4.7964593911   +6.8512199159   +3.2495290935  T T T
	+7.8839423717   +6.6717081916   +4.3565230045  T T T
	+1.6093917401   +6.8749893454   +5.9249402576  T T T
	+5.9754439832   +5.2142244313   +6.2677351203  T T T
	+6.8831619659   +5.3894385388   +7.0996882039  T T T
	+2.1932733867   +6.5184678120   +5.0024534521  T T T
