Cu Ce  O  C
   1.00000000000000
    15.3045997620000005    0.0000000000000000    0.0000000000000000
    -7.6522998810000002   13.2541721886000001    0.0000000000000000
     0.0000000000000000    0.0000000000000000   17.5620002747000008
   Cu   Ce   O    C
     3    16    38     3
Selective
Cartesian
	+6.4154997722   +5.9104400253   +3.4996711457  T T T
	+4.7853856046   +3.0669099185   +3.5112877307  T T T
	+3.1446810324   +5.9209389338   +3.5070950367  T T T
	+10.5218400000   +3.8658400000   +0.7810100000  F F F
	-2.8696900000   +7.1793900000   +0.7810100000  F F F
	+0.9564600000   +7.1793900000   +0.7810100000  F F F
	+4.7826100000   +7.1793900000   +0.7810100000  F F F
	+8.6087600000   +7.1793900000   +0.7810100000  F F F
	-4.7827600000   +10.4929300000   +0.7810100000  F F F
	-0.9566100000   +10.4929300000   +0.7810100000  F F F
	+2.8695300000   +10.4929300000   +0.7810100000  F F F
	+6.6956800000   +10.4929300000   +0.7810100000  F F F
	+0.9564600000   +0.5523000000   +0.7810100000  F F F
	+4.7826100000   +0.5523000000   +0.7810100000  F F F
	+8.6087600000   +0.5523000000   +0.7810100000  F F F
	+12.4349100000   +0.5523000000   +0.7810100000  F F F
	-0.9566100000   +3.8658400000   +0.7810100000  F F F
	+2.8695400000   +3.8658400000   +0.7810100000  F F F
	+6.6956900000   +3.8658400000   +0.7810100000  F F F
	+12.4350600000   +2.7612400000   +1.5620300000  F F F
	-2.8696097620   +4.9703100000   +0.0000000000  F F F
	-0.9564600000   +6.0747800000   +1.5620300000  F F F
	+0.9565400000   +4.9703100000   +0.0000000000  F F F
	+2.8696900000   +6.0747800000   +1.5620300000  F F F
	+4.7826900000   +4.9703100000   +0.0000000000  F F F
	+6.6958400000   +6.0747800000   +1.5620300000  F F F
	+8.6088400000   +4.9703100000   +0.0000000000  F F F
	+10.5219900000   +6.0747800000   +1.5620300000  F F F
	+10.5219100000   +8.2838600000   +0.0000000000  F F F
	-2.8695400000   +9.3883300000   +1.5620300000  F F F
	-0.9565400000   +8.2838600000   +0.0000000000  F F F
	+0.9566100000   +9.3883300000   +1.5620300000  F F F
	+2.8696100000   +8.2838600000   +0.0000000000  F F F
	+4.7827600000   +9.3883300000   +1.5620300000  F F F
	+6.6957600000   +8.2838600000   +0.0000000000  F F F
	+8.6089200000   +9.3883300000   +1.5620300000  F F F
	-6.6957600000   +11.5974000000   +0.0000000000  F F F
	-4.7826100000   +12.7018700000   +1.5620300000  F F F
	-2.8696100000   +11.5974000000   +0.0000000000  F F F
	+14.3480600000   +1.6567700000   +0.0000000000  F F F
	-0.9564600000   +12.7018700000   +1.5620300000  F F F
	+0.9565400000   +11.5974000000   +0.0000000000  F F F
	+2.8696900000   +12.7018700000   +1.5620300000  F F F
	+4.7826900000   +11.5974000000   +0.0000000000  F F F
	+6.6958400000   +12.7018700000   +1.5620300000  F F F
	+0.9566100000   +2.7612400000   +1.5620300000  F F F
	+2.8696100000   +1.6567700000   +0.0000000000  F F F
	+4.7827600000   +2.7612400000   +1.5620300000  F F F
	+6.6957600000   +1.6567700000   +0.0000000000  F F F
	+8.6089100000   +2.7612400000   +1.5620300000  F F F
	+10.5219100000   +1.6567700000   +0.0000000000  F F F
	+4.7807519467   +6.7756075269   +3.1883457079  T T T
	+3.2339086675   +4.0761166303   +3.1898609524  T T T
	+6.3433864076   +4.0651990482   +3.1929595632  T T T
	+4.7622847660   +1.3170320975   +5.9296073630  T T T
	+1.7936393841   +6.6190798255   +6.0795480639  T T T
	+7.6705923078   +6.5577899825   +6.1316720088  T T T
	+2.2730442339   +6.3846242437   +5.0616715142  T T T
	+4.7788554674   +1.9811394971   +4.9918242210  T T T
	+7.2421770418   +6.3436891653   +5.0872790212  T T T
