Cu Ce  O  C
   1.00000000000000
    15.3045997620000005    0.0000000000000000    0.0000000000000000
    -7.6522998810000002   13.2541721886000001    0.0000000000000000
     0.0000000000000000    0.0000000000000000   17.5620002747000008
   Cu   Ce   O    C
     3    16    38     3
Selective
Cartesian
	+6.6525336023   +5.7248463024   +3.6216982067  T T T
	+4.7812574318   +3.7383592163   +3.2007816536  T T T
	+2.9136266945   +5.7272786673   +3.6204759795  T T T
	+8.6087600000   +7.1793900000   +0.7810100000  F F F
	-4.7827600000   +10.4929300000   +0.7810100000  F F F
	-0.9566100000   +10.4929300000   +0.7810100000  F F F
	+2.8695300000   +10.4929300000   +0.7810100000  F F F
	+6.6956800000   +10.4929300000   +0.7810100000  F F F
	+0.9564600000   +0.5523000000   +0.7810100000  F F F
	+4.7826100000   +0.5523000000   +0.7810100000  F F F
	+8.6087600000   +0.5523000000   +0.7810100000  F F F
	+12.4349100000   +0.5523000000   +0.7810100000  F F F
	-0.9566100000   +3.8658400000   +0.7810100000  F F F
	+2.8695400000   +3.8658400000   +0.7810100000  F F F
	+6.6956900000   +3.8658400000   +0.7810100000  F F F
	+10.5218400000   +3.8658400000   +0.7810100000  F F F
	-2.8696900000   +7.1793900000   +0.7810100000  F F F
	+0.9564600000   +7.1793900000   +0.7810100000  F F F
	+4.7826100000   +7.1793900000   +0.7810100000  F F F
	+12.4350600000   +2.7612400000   +1.5620300000  F F F
	-2.8696097620   +4.9703100000   +0.0000000000  F F F
	-0.9564600000   +6.0747800000   +1.5620300000  F F F
	+0.9565400000   +4.9703100000   +0.0000000000  F F F
	+2.8696900000   +6.0747800000   +1.5620300000  F F F
	+4.7826900000   +4.9703100000   +0.0000000000  F F F
	+6.6958400000   +6.0747800000   +1.5620300000  F F F
	+8.6088400000   +4.9703100000   +0.0000000000  F F F
	+10.5219900000   +6.0747800000   +1.5620300000  F F F
	+10.5219100000   +8.2838600000   +0.0000000000  F F F
	-2.8695400000   +9.3883300000   +1.5620300000  F F F
	-0.9565400000   +8.2838600000   +0.0000000000  F F F
	+0.9566100000   +9.3883300000   +1.5620300000  F F F
	+2.8696100000   +8.2838600000   +0.0000000000  F F F
	+4.7827600000   +9.3883300000   +1.5620300000  F F F
	+6.6957600000   +8.2838600000   +0.0000000000  F F F
	+8.6089200000   +9.3883300000   +1.5620300000  F F F
	-6.6957600000   +11.5974000000   +0.0000000000  F F F
	-4.7826100000   +12.7018700000   +1.5620300000  F F F
	-2.8696100000   +11.5974000000   +0.0000000000  F F F
	+14.3480600000   +1.6567700000   +0.0000000000  F F F
	-0.9564600000   +12.7018700000   +1.5620300000  F F F
	+0.9565400000   +11.5974000000   +0.0000000000  F F F
	+2.8696900000   +12.7018700000   +1.5620300000  F F F
	+4.7826900000   +11.5974000000   +0.0000000000  F F F
	+6.6958400000   +12.7018700000   +1.5620300000  F F F
	+0.9566100000   +2.7612400000   +1.5620300000  F F F
	+2.8696100000   +1.6567700000   +0.0000000000  F F F
	+4.7827600000   +2.7612400000   +1.5620300000  F F F
	+6.6957600000   +1.6567700000   +0.0000000000  F F F
	+8.6089100000   +2.7612400000   +1.5620300000  F F F
	+10.5219100000   +1.6567700000   +0.0000000000  F F F
	+4.7830077111   +5.2594390502   +4.2406707034  T T T
	+2.9705643256   +3.8503859857   +3.1176638069  T T T
	+6.5929289759   +3.8463609759   +3.1190359270  T T T
	+1.2802865912   +7.5080760855   +5.3232185079  T T T
	+8.2921803938   +7.4967889463   +5.3277100182  T T T
	+4.7399418868   +1.7630350285   +6.1639617790  T T T
	+7.6207737850   +6.8435798000   +4.6577597305  T T T
	+1.9487472015   +6.8504362632   +4.6546158785  T T T
	+4.7252265732   +1.7108019640   +5.0233089455  T T T
