Cu Ce  O  C
   1.00000000000000
    15.3045997620000005    0.0000000000000000    0.0000000000000000
    -7.6522998810000002   13.2541721886000001    0.0000000000000000
     0.0000000000000000    0.0000000000000000   17.5620002747000008
   Cu   Ce   O    C
     3    16    38     3
Selective
Cartesian
	+6.4224689024   +5.9274263897   +3.5098406362  T T T
	+4.7802704255   +3.0999296222   +3.5052548510  T T T
	+3.1219986350   +5.9355991680   +3.5149534338  T T T
	+6.6956800000   +10.4929300000   +0.7810100000  F F F
	+0.9564600000   +0.5523000000   +0.7810100000  F F F
	+4.7826100000   +0.5523000000   +0.7810100000  F F F
	+8.6087600000   +0.5523000000   +0.7810100000  F F F
	+12.4349100000   +0.5523000000   +0.7810100000  F F F
	-0.9566100000   +3.8658400000   +0.7810100000  F F F
	+2.8695400000   +3.8658400000   +0.7810100000  F F F
	+6.6956900000   +3.8658400000   +0.7810100000  F F F
	+10.5218400000   +3.8658400000   +0.7810100000  F F F
	-2.8696900000   +7.1793900000   +0.7810100000  F F F
	+0.9564600000   +7.1793900000   +0.7810100000  F F F
	+4.7826100000   +7.1793900000   +0.7810100000  F F F
	+8.6087600000   +7.1793900000   +0.7810100000  F F F
	-4.7827600000   +10.4929300000   +0.7810100000  F F F
	-0.9566100000   +10.4929300000   +0.7810100000  F F F
	+2.8695300000   +10.4929300000   +0.7810100000  F F F
	+12.4350600000   +2.7612400000   +1.5620300000  F F F
	-2.8696097620   +4.9703100000   +0.0000000000  F F F
	-0.9564600000   +6.0747800000   +1.5620300000  F F F
	+0.9565400000   +4.9703100000   +0.0000000000  F F F
	+2.8696900000   +6.0747800000   +1.5620300000  F F F
	+4.7826900000   +4.9703100000   +0.0000000000  F F F
	+6.6958400000   +6.0747800000   +1.5620300000  F F F
	+8.6088400000   +4.9703100000   +0.0000000000  F F F
	+10.5219900000   +6.0747800000   +1.5620300000  F F F
	+10.5219100000   +8.2838600000   +0.0000000000  F F F
	-2.8695400000   +9.3883300000   +1.5620300000  F F F
	-0.9565400000   +8.2838600000   +0.0000000000  F F F
	+0.9566100000   +9.3883300000   +1.5620300000  F F F
	+2.8696100000   +8.2838600000   +0.0000000000  F F F
	+4.7827600000   +9.3883300000   +1.5620300000  F F F
	+6.6957600000   +8.2838600000   +0.0000000000  F F F
	+8.6089200000   +9.3883300000   +1.5620300000  F F F
	-6.6957600000   +11.5974000000   +0.0000000000  F F F
	-4.7826100000   +12.7018700000   +1.5620300000  F F F
	-2.8696100000   +11.5974000000   +0.0000000000  F F F
	+14.3480600000   +1.6567700000   +0.0000000000  F F F
	-0.9564600000   +12.7018700000   +1.5620300000  F F F
	+0.9565400000   +11.5974000000   +0.0000000000  F F F
	+2.8696900000   +12.7018700000   +1.5620300000  F F F
	+4.7826900000   +11.5974000000   +0.0000000000  F F F
	+6.6958400000   +12.7018700000   +1.5620300000  F F F
	+0.9566100000   +2.7612400000   +1.5620300000  F F F
	+2.8696100000   +1.6567700000   +0.0000000000  F F F
	+4.7827600000   +2.7612400000   +1.5620300000  F F F
	+6.6957600000   +1.6567700000   +0.0000000000  F F F
	+8.6089100000   +2.7612400000   +1.5620300000  F F F
	+10.5219100000   +1.6567700000   +0.0000000000  F F F
	+6.3459888344   +4.0771368681   +3.1982886182  T T T
	+3.2200163587   +4.0879066420   +3.1980110038  T T T
	+4.7768579476   +6.7681864992   +3.1983233570  T T T
	+1.5778348087   +6.9778394255   +5.8530438591  T T T
	+7.9201446407   +6.7919091945   +5.9435595472  T T T
	+4.7110794519   +1.6141557567   +6.0979939444  T T T
	+4.7511151381   +2.1289596565   +5.0714867210  T T T
	+7.3560287564   +6.4688242500   +4.9958142244  T T T
	+2.1623791507   +6.5672888976   +4.9523679794  T T T
