Cu Ce  O  C
   1.00000000000000
    15.3045997620000005    0.0000000000000000    0.0000000000000000
    -7.6522998810000002   13.2541721886000001    0.0000000000000000
     0.0000000000000000    0.0000000000000000   17.5620002747000008
   Cu   Ce   O    C
     3    16    38     2
Selective
Cartesian
	+6.2925997384   +5.8333600896   +3.5114115603  T T T
	+4.8183656050   +3.5844504722   +3.2553062858  T T T
	+3.5376464288   +5.6822795470   +3.3236543942  T T T
	+8.6087600000   +7.1793900000   +0.7810100000  F F F
	-4.7827600000   +10.4929300000   +0.7810100000  F F F
	-0.9566100000   +10.4929300000   +0.7810100000  F F F
	+2.8695300000   +10.4929300000   +0.7810100000  F F F
	+6.6956800000   +10.4929300000   +0.7810100000  F F F
	+0.9564600000   +0.5523000000   +0.7810100000  F F F
	+4.7826100000   +0.5523000000   +0.7810100000  F F F
	+8.6087600000   +0.5523000000   +0.7810100000  F F F
	+12.4349100000   +0.5523000000   +0.7810100000  F F F
	-0.9566100000   +3.8658400000   +0.7810100000  F F F
	+2.8695400000   +3.8658400000   +0.7810100000  F F F
	+6.6956900000   +3.8658400000   +0.7810100000  F F F
	+10.5218400000   +3.8658400000   +0.7810100000  F F F
	-2.8696900000   +7.1793900000   +0.7810100000  F F F
	+0.9564600000   +7.1793900000   +0.7810100000  F F F
	+4.7826100000   +7.1793900000   +0.7810100000  F F F
	+12.4350600000   +2.7612400000   +1.5620300000  F F F
	+12.4349897620   +4.9703100000   +0.0000000000  F F F
	-0.9564600000   +6.0747800000   +1.5620300000  F F F
	+0.9565400000   +4.9703100000   +0.0000000000  F F F
	+2.8696900000   +6.0747800000   +1.5620300000  F F F
	+4.7826900000   +4.9703100000   +0.0000000000  F F F
	+6.6958400000   +6.0747800000   +1.5620300000  F F F
	+8.6088400000   +4.9703100000   +0.0000000000  F F F
	+10.5219900000   +6.0747800000   +1.5620300000  F F F
	+10.5219100000   +8.2838600000   +0.0000000000  F F F
	-2.8695400000   +9.3883300000   +1.5620300000  F F F
	-0.9565400000   +8.2838600000   +0.0000000000  F F F
	+0.9566100000   +9.3883300000   +1.5620300000  F F F
	+2.8696100000   +8.2838600000   +0.0000000000  F F F
	+4.7827600000   +9.3883300000   +1.5620300000  F F F
	+6.6957600000   +8.2838600000   +0.0000000000  F F F
	+8.6089200000   +9.3883300000   +1.5620300000  F F F
	-6.6957600000   +11.5974000000   +0.0000000000  F F F
	-4.7826100000   +12.7018700000   +1.5620300000  F F F
	-2.8696100000   +11.5974000000   +0.0000000000  F F F
	+14.3480600000   +1.6567700000   +0.0000000000  F F F
	-0.9564600000   +12.7018700000   +1.5620300000  F F F
	+0.9565400000   +11.5974000000   +0.0000000000  F F F
	+2.8696900000   +12.7018700000   +1.5620300000  F F F
	+4.7826900000   +11.5974000000   +0.0000000000  F F F
	+6.6958400000   +12.7018700000   +1.5620300000  F F F
	+0.9566100000   +2.7612400000   +1.5620300000  F F F
	+2.8696100000   +1.6567700000   +0.0000000000  F F F
	+4.7827600000   +2.7612400000   +1.5620300000  F F F
	+6.6957600000   +1.6567700000   +0.0000000000  F F F
	+8.6089100000   +2.7612400000   +1.5620300000  F F F
	+10.5219100000   +1.6567700000   +0.0000000000  F F F
	+6.6173689343   +3.8478762551   +3.1470353321  T T T
	+4.7389433546   +7.0718631710   +3.1623502859  T T T
	+4.7856567808   +4.9301307702   +4.5368053056  T T T
	+2.9952067945   +3.8571308290   +3.1477649197  T T T
	+8.4130174036   +6.8488692651   +5.4814052252  T T T
	+0.9009461735   +5.0261807941   +5.1658680842  T T T
	+1.6433941145   +5.7294526440   +4.6568622120  T T T
	+7.6606828219   +6.5247263511   +4.6788129113  T T T
