 O Cu  O Cu 
 1.0000000000000000
    11.2613459999999996   -2.5092080000000001    0.0000000000000000
     0.0000000000000000    6.1416420000000000    0.0000000000000000
     0.0000000000000000    0.0000000000000000   20.3904470000000018
   8   8   8   8
Selective dynamics
Cartesian
  0.9616570109969954  2.4929570894019912  0.7674148632919817   F   F   F
  4.9397430022403706  3.1918424178825400  3.1542913497264768   F   F   F
  3.7769935109969954  1.8656550894019910  0.7674148632919817   F   F   F
  2.1247606133204191  3.8194998419918278  3.1523609024342041   F   F   F
  1.5072241793130181  4.9351937433239907  0.0000000000000000   F   F   F
  5.5601573796061921 -0.5157134004170232  2.5846162545492204   F   F   F
  4.3225606793130176  4.3078917433239905  0.0000000000000000   F   F   F
  2.7454895584779559  0.1123029675079106  2.5848281616734150   F   F   F
  2.6421088451549863  3.4004213455420027  0.3837074316460632   F   F   F
  1.0282930510833603  5.3528758489238628  2.8672991346472108   F   F   F
  5.4574453451549862 -0.2977016544579971  0.3837074316460632   F   F   F
  3.8424852667919529  1.6450548972117325  2.8973366848809166   F   F   F
  5.4574453451549862  2.7731193455420029  0.3837074316460632   F   F   F
  3.8436292632006923  4.7254572858400046  2.8669811256633988   F   F   F
  2.6421088451549863  0.3296003455420029  0.3837074316460632   F   F   F
  1.0264998902791846  2.2727654422603378  2.8944498606125739   F   F   F
  6.5923300109969949  1.2383530894019912  0.7674148632919817   F   F   F
 10.5704160022403713  1.9372384178825399  3.1542913497264768   F   F   F
  9.4076665109969948  0.6110510894019909  0.7674148632919817   F   F   F
  7.7554336133204185  2.5648958419918277  3.1523609024342041   F   F   F
  7.1378971793130184  3.6805897433239907  0.0000000000000000   F   F   F
 11.1908303796061919 -1.7703174004170232  2.5846162545492204   F   F   F
  9.9532336793130174  3.0532877433239904  0.0000000000000000   F   F   F
  8.3761625584779562 -1.1423010324920895  2.5848281616734150   F   F   F
  8.2727818451549862  2.1458173455420027  0.3837074316460632   F   F   F
  6.6589660510833601  4.0982718489238632  2.8672991346472108   F   F   F
 11.0881183451549852 -1.5523056544579972  0.3837074316460632   F   F   F
  9.4731582667919518  0.3904508972117324  2.8973366848809166   F   F   F
 11.0881183451549852  1.5185153455420028  0.3837074316460632   F   F   F
  9.4743022632006912  3.4708532858400045  2.8669811256633988   F   F   F
  8.2727818451549862 -0.9250036544579971  0.3837074316460632   F   F   F
  6.6571728902791847  1.0181614422603378  2.8944498606125739   F   F   F
